784 1568
1 2 4
1 29 5
2 3 3
2 30 4
3 4 5
3 31 1
4 5 1
4 32 3
5 6 5
5 33 3
6 7 2
6 34 3
7 8 4
7 35 3
8 9 4
8 36 5
9 10 5
9 37 4
10 11 3
10 38 2
11 12 4
11 39 4
12 13 3
12 40 3
13 14 2
13 41 1
14 15 3
14 42 2
15 16 3
15 43 3
16 17 1
16 44 1
17 18 2
17 45 5
18 19 4
18 46 5
19 20 4
19 47 4
20 21 3
20 48 1
21 22 3
21 49 4
22 23 2
22 50 5
23 24 3
23 51 3
24 25 4
24 52 5
25 26 1
25 53 4
26 27 2
26 54 2
27 28 3
27 55 1
28 56 5
29 30 1
29 57 4
30 31 4
30 58 1
31 32 1
31 59 4
32 33 5
32 60 2
33 34 2
33 61 5
34 35 4
34 62 4
35 36 4
35 63 4
36 37 4
36 64 2
37 38 5
37 65 1
38 39 2
38 66 4
39 40 1
39 67 4
40 41 5
40 68 4
41 42 1
41 69 4
42 43 5
42 70 2
43 44 5
43 71 4
44 45 5
44 72 4
45 46 4
45 73 1
46 47 1
46 74 5
47 48 1
47 75 1
48 49 1
48 76 1
49 50 3
49 77 5
50 51 3
50 78 5
51 52 1
51 79 2
52 53 4
52 80 5
53 54 3
53 81 4
54 55 2
54 82 3
55 56 4
55 83 4
56 84 1
57 58 4
57 85 5
58 59 4
58 86 2
59 60 5
59 87 4
60 61 4
60 88 1
61 62 2
61 89 1
62 63 4
62 90 5
63 64 5
63 91 3
64 65 4
64 92 4
65 66 3
65 93 3
66 67 4
66 94 3
67 68 2
67 95 3
68 69 5
68 96 3
69 70 3
69 97 4
70 71 5
70 98 5
71 72 2
71 99 1
72 73 2
72 100 4
73 74 5
73 101 2
74 75 3
74 102 4
75 76 3
75 103 3
76 77 2
76 104 5
77 78 2
77 105 2
78 79 3
78 106 4
79 80 3
79 107 5
80 81 3
80 108 2
81 82 2
81 109 4
82 83 4
82 110 4
83 84 3
83 111 5
84 112 3
85 86 3
85 113 5
86 87 2
86 114 4
87 88 1
87 115 4
88 89 3
88 116 5
89 90 2
89 117 5
90 91 5
90 118 2
91 92 3
91 119 5
92 93 2
92 120 3
93 94 1
93 121 4
94 95 5
94 122 3
95 96 5
95 123 1
96 97 2
96 124 1
97 98 3
97 125 1
98 99 5
98 126 5
99 100 1
99 127 5
100 101 1
100 128 4
101 102 1
101 129 1
102 103 4
102 130 2
103 104 1
103 131 3
104 105 2
104 132 4
105 106 1
105 133 2
106 107 3
106 134 3
107 108 1
107 135 5
108 109 1
108 136 4
109 110 1
109 137 2
110 111 4
110 138 1
111 112 2
111 139 1
112 140 2
113 114 2
113 141 3
114 115 3
114 142 3
115 116 1
115 143 1
116 117 3
116 144 3
117 118 1
117 145 1
118 119 1
118 146 1
119 120 3
119 147 4
120 121 1
120 148 5
121 122 5
121 149 2
122 123 1
122 150 4
123 124 4
123 151 5
124 125 4
124 152 1
125 126 5
125 153 5
126 127 5
126 154 4
127 128 2
127 155 5
128 129 3
128 156 3
129 130 1
129 157 3
130 131 3
130 158 4
131 132 2
131 159 3
132 133 5
132 160 3
133 134 3
133 161 5
134 135 5
134 162 5
135 136 1
135 163 2
136 137 4
136 164 2
137 138 4
137 165 3
138 139 4
138 166 2
139 140 5
139 167 3
140 168 3
141 142 5
141 169 5
142 143 3
142 170 5
143 144 4
143 171 4
144 145 2
144 172 1
145 146 1
145 173 1
146 147 1
146 174 3
147 148 2
147 175 3
148 149 1
148 176 3
149 150 5
149 177 4
150 151 2
150 178 3
151 152 2
151 179 4
152 153 3
152 180 2
153 154 1
153 181 5
154 155 1
154 182 5
155 156 1
155 183 1
156 157 3
156 184 3
157 158 2
157 185 1
158 159 1
158 186 4
159 160 1
159 187 3
160 161 1
160 188 2
161 162 3
161 189 4
162 163 5
162 190 1
163 164 3
163 191 3
164 165 1
164 192 4
165 166 3
165 193 1
166 167 2
166 194 3
167 168 4
167 195 5
168 196 3
169 170 3
169 197 2
170 171 5
170 198 4
171 172 5
171 199 3
172 173 1
172 200 3
173 174 2
173 201 1
174 175 5
174 202 5
175 176 4
175 203 1
176 177 4
176 204 2
177 178 5
177 205 1
178 179 3
178 206 1
179 180 2
179 207 1
180 181 5
180 208 2
181 182 1
181 209 3
182 183 5
182 210 3
183 184 2
183 211 4
184 185 5
184 212 5
185 186 5
185 213 2
186 187 3
186 214 2
187 188 4
187 215 5
188 189 2
188 216 1
189 190 5
189 217 2
190 191 2
190 218 3
191 192 3
191 219 1
192 193 2
192 220 1
193 194 5
193 221 1
194 195 1
194 222 1
195 196 2
195 223 3
196 224 5
197 198 5
197 225 4
198 199 1
198 226 4
199 200 3
199 227 5
200 201 5
200 228 4
201 202 1
201 229 3
202 203 1
202 230 4
203 204 3
203 231 1
204 205 3
204 232 1
205 206 5
205 233 1
206 207 4
206 234 1
207 208 3
207 235 3
208 209 2
208 236 1
209 210 2
209 237 5
210 211 5
210 238 3
211 212 5
211 239 5
212 213 3
212 240 5
213 214 4
213 241 4
214 215 5
214 242 2
215 216 3
215 243 1
216 217 5
216 244 2
217 218 4
217 245 1
218 219 3
218 246 1
219 220 3
219 247 3
220 221 5
220 248 4
221 222 5
221 249 5
222 223 4
222 250 3
223 224 5
223 251 1
224 252 3
225 226 1
225 253 1
226 227 3
226 254 2
227 228 3
227 255 1
228 229 5
228 256 2
229 230 5
229 257 1
230 231 3
230 258 4
231 232 3
231 259 3
232 233 4
232 260 4
233 234 3
233 261 4
234 235 4
234 262 4
235 236 1
235 263 5
236 237 5
236 264 4
237 238 5
237 265 2
238 239 2
238 266 2
239 240 3
239 267 1
240 241 5
240 268 4
241 242 1
241 269 2
242 243 5
242 270 1
243 244 3
243 271 2
244 245 2
244 272 1
245 246 3
245 273 4
246 247 4
246 274 5
247 248 1
247 275 2
248 249 3
248 276 5
249 250 5
249 277 3
250 251 3
250 278 1
251 252 4
251 279 4
252 280 2
253 254 1
253 281 4
254 255 2
254 282 5
255 256 1
255 283 3
256 257 2
256 284 4
257 258 3
257 285 5
258 259 4
258 286 1
259 260 1
259 287 1
260 261 5
260 288 3
261 262 3
261 289 5
262 263 5
262 290 5
263 264 2
263 291 5
264 265 1
264 292 3
265 266 1
265 293 3
266 267 2
266 294 5
267 268 5
267 295 3
268 269 2
268 296 1
269 270 1
269 297 2
270 271 4
270 298 2
271 272 5
271 299 1
272 273 2
272 300 4
273 274 3
273 301 5
274 275 1
274 302 4
275 276 1
275 303 3
276 277 5
276 304 2
277 278 4
277 305 4
278 279 2
278 306 1
279 280 4
279 307 3
280 308 1
281 282 4
281 309 3
282 283 2
282 310 4
283 284 3
283 311 1
284 285 3
284 312 1
285 286 1
285 313 2
286 287 4
286 314 1
287 288 4
287 315 3
288 289 1
288 316 2
289 290 3
289 317 2
290 291 5
290 318 5
291 292 5
291 319 4
292 293 1
292 320 2
293 294 1
293 321 1
294 295 1
294 322 4
295 296 3
295 323 5
296 297 4
296 324 4
297 298 1
297 325 4
298 299 2
298 326 1
299 300 1
299 327 5
300 301 2
300 328 3
301 302 5
301 329 4
302 303 5
302 330 1
303 304 3
303 331 5
304 305 2
304 332 4
305 306 5
305 333 3
306 307 3
306 334 3
307 308 4
307 335 2
308 336 1
309 310 1
309 337 2
310 311 1
310 338 1
311 312 1
311 339 2
312 313 5
312 340 5
313 314 2
313 341 4
314 315 2
314 342 3
315 316 1
315 343 1
316 317 1
316 344 2
317 318 5
317 345 4
318 319 3
318 346 4
319 320 3
319 347 2
320 321 3
320 348 1
321 322 5
321 349 4
322 323 4
322 350 5
323 324 3
323 351 4
324 325 4
324 352 3
325 326 5
325 353 3
326 327 1
326 354 1
327 328 4
327 355 4
328 329 1
328 356 1
329 330 4
329 357 2
330 331 5
330 358 3
331 332 4
331 359 1
332 333 1
332 360 3
333 334 4
333 361 1
334 335 2
334 362 1
335 336 3
335 363 3
336 364 4
337 338 4
337 365 2
338 339 2
338 366 5
339 340 5
339 367 4
340 341 4
340 368 1
341 342 3
341 369 3
342 343 5
342 370 2
343 344 5
343 371 3
344 345 5
344 372 4
345 346 5
345 373 3
346 347 5
346 374 5
347 348 1
347 375 5
348 349 1
348 376 5
349 350 5
349 377 4
350 351 4
350 378 3
351 352 2
351 379 1
352 353 3
352 380 5
353 354 1
353 381 2
354 355 3
354 382 5
355 356 2
355 383 5
356 357 3
356 384 1
357 358 5
357 385 3
358 359 5
358 386 3
359 360 4
359 387 3
360 361 2
360 388 3
361 362 3
361 389 5
362 363 4
362 390 5
363 364 4
363 391 3
364 392 2
365 366 5
365 393 3
366 367 5
366 394 3
367 368 4
367 395 1
368 369 2
368 396 1
369 370 1
369 397 1
370 371 5
370 398 5
371 372 1
371 399 2
372 373 1
372 400 4
373 374 2
373 401 2
374 375 3
374 402 5
375 376 5
375 403 4
376 377 5
376 404 3
377 378 1
377 405 5
378 379 4
378 406 2
379 380 2
379 407 1
380 381 5
380 408 4
381 382 3
381 409 5
382 383 5
382 410 5
383 384 4
383 411 4
384 385 3
384 412 5
385 386 1
385 413 1
386 387 5
386 414 4
387 388 5
387 415 3
388 389 2
388 416 5
389 390 5
389 417 3
390 391 5
390 418 2
391 392 4
391 419 2
392 420 1
393 394 1
393 421 3
394 395 3
394 422 5
395 396 3
395 423 2
396 397 3
396 424 4
397 398 4
397 425 4
398 399 5
398 426 2
399 400 3
399 427 4
400 401 4
400 428 5
401 402 4
401 429 3
402 403 5
402 430 4
403 404 3
403 431 1
404 405 3
404 432 1
405 406 2
405 433 4
406 407 3
406 434 4
407 408 2
407 435 1
408 409 4
408 436 4
409 410 2
409 437 1
410 411 2
410 438 2
411 412 2
411 439 2
412 413 4
412 440 5
413 414 3
413 441 3
414 415 4
414 442 5
415 416 5
415 443 2
416 417 3
416 444 3
417 418 4
417 445 4
418 419 4
418 446 4
419 420 2
419 447 1
420 448 2
421 422 1
421 449 4
422 423 4
422 450 3
423 424 5
423 451 4
424 425 1
424 452 5
425 426 5
425 453 5
426 427 5
426 454 2
427 428 2
427 455 3
428 429 1
428 456 4
429 430 2
429 457 4
430 431 5
430 458 5
431 432 1
431 459 1
432 433 5
432 460 1
433 434 3
433 461 1
434 435 4
434 462 1
435 436 4
435 463 5
436 437 2
436 464 1
437 438 2
437 465 1
438 439 1
438 466 2
439 440 5
439 467 3
440 441 5
440 468 3
441 442 2
441 469 5
442 443 1
442 470 4
443 444 1
443 471 2
444 445 3
444 472 1
445 446 1
445 473 3
446 447 4
446 474 3
447 448 2
447 475 2
448 476 1
449 450 1
449 477 3
450 451 5
450 478 1
451 452 2
451 479 2
452 453 5
452 480 3
453 454 3
453 481 1
454 455 1
454 482 5
455 456 4
455 483 5
456 457 2
456 484 2
457 458 1
457 485 5
458 459 2
458 486 4
459 460 2
459 487 2
460 461 3
460 488 1
461 462 2
461 489 5
462 463 2
462 490 3
463 464 3
463 491 4
464 465 5
464 492 5
465 466 2
465 493 1
466 467 4
466 494 5
467 468 2
467 495 1
468 469 3
468 496 3
469 470 4
469 497 5
470 471 3
470 498 4
471 472 5
471 499 3
472 473 2
472 500 5
473 474 4
473 501 3
474 475 5
474 502 5
475 476 2
475 503 2
476 504 3
477 478 4
477 505 3
478 479 3
478 506 3
479 480 4
479 507 1
480 481 4
480 508 4
481 482 1
481 509 4
482 483 2
482 510 1
483 484 4
483 511 4
484 485 3
484 512 4
485 486 5
485 513 1
486 487 1
486 514 5
487 488 2
487 515 1
488 489 4
488 516 2
489 490 2
489 517 3
490 491 2
490 518 4
491 492 4
491 519 1
492 493 2
492 520 3
493 494 3
493 521 4
494 495 5
494 522 4
495 496 3
495 523 5
496 497 4
496 524 3
497 498 5
497 525 4
498 499 1
498 526 4
499 500 1
499 527 3
500 501 2
500 528 3
501 502 2
501 529 5
502 503 5
502 530 5
503 504 1
503 531 5
504 532 5
505 506 2
505 533 2
506 507 3
506 534 4
507 508 5
507 535 3
508 509 4
508 536 2
509 510 5
509 537 4
510 511 4
510 538 1
511 512 4
511 539 1
512 513 4
512 540 2
513 514 3
513 541 5
514 515 3
514 542 4
515 516 4
515 543 5
516 517 4
516 544 2
517 518 2
517 545 3
518 519 2
518 546 2
519 520 5
519 547 1
520 521 2
520 548 2
521 522 4
521 549 2
522 523 1
522 550 5
523 524 1
523 551 2
524 525 3
524 552 3
525 526 5
525 553 3
526 527 4
526 554 1
527 528 4
527 555 3
528 529 4
528 556 2
529 530 3
529 557 4
530 531 4
530 558 5
531 532 1
531 559 1
532 560 1
533 534 2
533 561 3
534 535 3
534 562 2
535 536 1
535 563 3
536 537 5
536 564 2
537 538 5
537 565 5
538 539 3
538 566 1
539 540 3
539 567 1
540 541 5
540 568 1
541 542 2
541 569 5
542 543 2
542 570 2
543 544 1
543 571 1
544 545 5
544 572 5
545 546 4
545 573 5
546 547 3
546 574 4
547 548 2
547 575 5
548 549 4
548 576 4
549 550 1
549 577 5
550 551 3
550 578 4
551 552 5
551 579 3
552 553 2
552 580 5
553 554 4
553 581 5
554 555 3
554 582 1
555 556 3
555 583 4
556 557 4
556 584 4
557 558 4
557 585 5
558 559 1
558 586 4
559 560 1
559 587 3
560 588 5
561 562 1
561 589 2
562 563 5
562 590 4
563 564 3
563 591 3
564 565 3
564 592 3
565 566 3
565 593 5
566 567 5
566 594 2
567 568 3
567 595 5
568 569 4
568 596 3
569 570 5
569 597 2
570 571 4
570 598 4
571 572 5
571 599 3
572 573 1
572 600 2
573 574 5
573 601 4
574 575 1
574 602 3
575 576 5
575 603 1
576 577 4
576 604 5
577 578 5
577 605 2
578 579 4
578 606 4
579 580 1
579 607 4
580 581 5
580 608 4
581 582 3
581 609 5
582 583 4
582 610 1
583 584 5
583 611 4
584 585 1
584 612 1
585 586 3
585 613 2
586 587 4
586 614 5
587 588 1
587 615 5
588 616 3
589 590 2
589 617 3
590 591 2
590 618 1
591 592 4
591 619 3
592 593 3
592 620 1
593 594 4
593 621 4
594 595 4
594 622 5
595 596 1
595 623 1
596 597 5
596 624 4
597 598 3
597 625 3
598 599 5
598 626 5
599 600 4
599 627 4
600 601 5
600 628 2
601 602 1
601 629 5
602 603 2
602 630 1
603 604 3
603 631 5
604 605 3
604 632 2
605 606 2
605 633 1
606 607 4
606 634 1
607 608 3
607 635 5
608 609 3
608 636 5
609 610 5
609 637 2
610 611 4
610 638 2
611 612 2
611 639 5
612 613 3
612 640 1
613 614 3
613 641 3
614 615 2
614 642 5
615 616 2
615 643 5
616 644 1
617 618 1
617 645 2
618 619 4
618 646 4
619 620 2
619 647 4
620 621 4
620 648 1
621 622 5
621 649 4
622 623 2
622 650 5
623 624 2
623 651 2
624 625 3
624 652 4
625 626 4
625 653 2
626 627 1
626 654 4
627 628 4
627 655 3
628 629 2
628 656 2
629 630 1
629 657 3
630 631 4
630 658 4
631 632 2
631 659 1
632 633 1
632 660 2
633 634 3
633 661 4
634 635 5
634 662 3
635 636 1
635 663 4
636 637 4
636 664 3
637 638 5
637 665 2
638 639 4
638 666 3
639 640 5
639 667 2
640 641 4
640 668 1
641 642 5
641 669 3
642 643 3
642 670 3
643 644 1
643 671 4
644 672 3
645 646 2
645 673 1
646 647 4
646 674 1
647 648 3
647 675 4
648 649 5
648 676 1
649 650 1
649 677 1
650 651 5
650 678 2
651 652 5
651 679 1
652 653 5
652 680 2
653 654 5
653 681 5
654 655 2
654 682 2
655 656 1
655 683 2
656 657 3
656 684 4
657 658 2
657 685 4
658 659 5
658 686 4
659 660 5
659 687 3
660 661 4
660 688 1
661 662 2
661 689 3
662 663 2
662 690 4
663 664 3
663 691 1
664 665 4
664 692 3
665 666 3
665 693 4
666 667 5
666 694 4
667 668 3
667 695 1
668 669 2
668 696 1
669 670 5
669 697 3
670 671 3
670 698 5
671 672 5
671 699 4
672 700 1
673 674 1
673 701 1
674 675 1
674 702 2
675 676 4
675 703 4
676 677 5
676 704 5
677 678 2
677 705 4
678 679 3
678 706 2
679 680 5
679 707 1
680 681 5
680 708 3
681 682 5
681 709 3
682 683 5
682 710 3
683 684 4
683 711 3
684 685 4
684 712 3
685 686 3
685 713 1
686 687 4
686 714 2
687 688 2
687 715 2
688 689 2
688 716 5
689 690 2
689 717 2
690 691 2
690 718 1
691 692 4
691 719 3
692 693 2
692 720 2
693 694 2
693 721 5
694 695 2
694 722 2
695 696 4
695 723 3
696 697 1
696 724 2
697 698 1
697 725 4
698 699 4
698 726 4
699 700 4
699 727 1
700 728 1
701 702 3
701 729 4
702 703 3
702 730 1
703 704 5
703 731 3
704 705 1
704 732 5
705 706 4
705 733 5
706 707 3
706 734 4
707 708 3
707 735 4
708 709 2
708 736 3
709 710 2
709 737 5
710 711 4
710 738 3
711 712 5
711 739 5
712 713 1
712 740 3
713 714 2
713 741 5
714 715 5
714 742 2
715 716 2
715 743 3
716 717 4
716 744 4
717 718 2
717 745 4
718 719 1
718 746 1
719 720 3
719 747 5
720 721 2
720 748 5
721 722 2
721 749 5
722 723 4
722 750 3
723 724 2
723 751 5
724 725 3
724 752 1
725 726 3
725 753 1
726 727 3
726 754 3
727 728 5
727 755 1
728 756 2
729 730 3
729 757 2
730 731 5
730 758 1
731 732 3
731 759 4
732 733 5
732 760 4
733 734 1
733 761 4
734 735 1
734 762 3
735 736 2
735 763 5
736 737 3
736 764 2
737 738 3
737 765 2
738 739 1
738 766 1
739 740 1
739 767 4
740 741 1
740 768 2
741 742 2
741 769 2
742 743 4
742 770 4
743 744 1
743 771 4
744 745 3
744 772 4
745 746 4
745 773 4
746 747 4
746 774 4
747 748 1
747 775 5
748 749 2
748 776 1
749 750 1
749 777 1
750 751 5
750 778 4
751 752 4
751 779 4
752 753 5
752 780 2
753 754 5
753 781 1
754 755 5
754 782 1
755 756 5
755 783 4
756 784 3
757 758 2
758 759 5
759 760 4
760 761 5
761 762 1
762 763 2
763 764 3
764 765 2
765 766 1
766 767 2
767 768 5
768 769 5
769 770 4
770 771 1
771 772 3
772 773 3
773 774 1
774 775 2
775 776 3
776 777 5
777 778 4
778 779 5
779 780 4
780 781 5
781 782 3
782 783 2
783 784 5
1 757 2
2 758 4
3 759 1
4 760 2
5 761 4
6 762 3
7 763 3
8 764 3
9 765 2
10 766 3
11 767 4
12 768 2
13 769 3
14 770 4
15 771 3
16 772 3
17 773 3
18 774 3
19 775 2
20 776 1
21 777 1
22 778 5
23 779 3
24 780 2
25 781 5
26 782 2
27 783 3
28 784 3
1 28 4
29 56 1
57 84 3
85 112 1
113 140 3
141 168 3
169 196 2
197 224 2
225 252 2
253 280 5
281 308 4
309 336 1
337 364 4
365 392 3
393 420 2
421 448 3
449 476 1
477 504 4
505 532 4
533 560 2
561 588 1
589 616 5
617 644 1
645 672 5
673 700 1
701 728 1
729 756 3
757 784 2
